(set-info :smt-lib-version 2.6)
(set-logic QF_LIA)
(set-info :category "industrial")
(set-info :status sat)
(declare-fun x0 () Int)
(declare-fun x1 () Int)
(declare-fun x10 () Int)
(declare-fun x11 () Int)
(declare-fun x12 () Int)
(declare-fun x13 () Int)
(declare-fun x14 () Int)
(declare-fun x15 () Int)
(declare-fun x16 () Int)
(declare-fun x17 () Int)
(declare-fun x18 () Int)
(declare-fun x19 () Int)
(declare-fun x2 () Int)
(declare-fun x3 () Int)
(declare-fun x4 () Int)
(declare-fun x5 () Int)
(declare-fun x6 () Int)
(declare-fun x7 () Int)
(declare-fun x8 () Int)
(declare-fun x9 () Int)
(assert (let ((?v_0 (* 0 x1)) (?v_1 (* 1 x13)) (?v_2 (* 1 x14)) (?v_32 (* 0 x16)) (?v_5 (* 1 x17)) (?v_3 (* 1 x19)) (?v_9 (* 0 x4)) (?v_41 (* 0 x11)) (?v_24 (* 0 x13)) (?v_25 (* 0 x14)) (?v_18 (* 0 x2)) (?v_10 (* 0 x7)) (?v_13 (* 1 x9)) (?v_11 (* 1 x1)) (?v_21 (* 1 x10)) (?v_47 (* 2 x14)) (?v_31 (* 0 x3)) (?v_27 (* 0 x5)) (?v_43 (* 1 x6)) (?v_49 (* 0 x9))) (let ((?v_45 (+ ?v_43 ?v_49)) (?v_20 (* 0 x0)) (?v_29 (* 0 x10)) (?v_17 (* 0 x18)) (?v_46 (* 1 x12)) (?v_51 (* 1 x2)) (?v_23 (* 1 x3)) (?v_44 (* 1 x5)) (?v_34 (* 0 x12)) (?v_39 (* 1 x7)) (?v_54 (* 1 x4)) (?v_35 (* 0 x17)) (?v_48 (* 1 x16)) (?v_56 (* 1 x8)) (?v_28 (* 1 x0)) (?v_36 (* 0 x19)) (?v_38 (* 1 x18)) (?v_64 (* 2 x16)) (?v_50 (* 0 x15)) (?v_42 (* 0 x8)) (?v_61 (* 1 x15)) (?v_59 (* 0 x6))) (let ((?v_63 (+ ?v_54 ?v_56)) (?v_58 (* 2 x0)) (?v_67 (* 2 x1)) (?v_66 (* 1 x11)) (?v_65 (* 2 x11)) (?v_12 (* (- 1) x15)) (?v_16 (* (- 1) x3)) (?v_57 (* (- 1) x7)) (?v_4 (* (- 1) x0)) (?v_22 (* (- 1) x12)) (?v_8 (* (- 1) x17)) (?v_6 (* (- 1) x5)) (?v_62 (* (- 2) x3)) (?v_19 (* (- 1) x1)) (?v_14 (* (- 1) x10)) (?v_7 (* (- 1) x11)) (?v_26 (* (- 1) x16)) (?v_52 (* (- 1) x18)) (?v_55 (* (- 1) x14)) (?v_15 (* (- 1) x19)) (?v_37 (* (- 1) x6)) (?v_40 (* (- 1) x9)) (?v_30 (* (- 1) x13)) (?v_33 (* (- 1) x2)) (?v_53 (* (- 1) x8)) (?v_60 (* (- 1) x4))) (and (<= (+ ?v_0 (+ ?v_1 (+ ?v_2 (+ ?v_12 (+ ?v_16 (+ ?v_57 (+ ?v_32 (+ ?v_5 (+ ?v_3 (+ (* 3 x5) (+ (* (- 3) x9) ?v_9))))))))))) 1) (<= (+ ?v_4 (+ ?v_0 (+ ?v_22 (+ ?v_8 (+ ?v_1 (+ ?v_2 (+ ?v_3 (+ ?v_6 (+ (* (- 4) x6) ?v_41))))))))) (- 1)) (<= (+ ?v_62 (+ ?v_4 (+ ?v_19 (+ ?v_14 (+ ?v_7 (+ ?v_24 (+ ?v_25 (+ ?v_26 (+ ?v_5 (+ ?v_6 (+ ?v_18 (+ ?v_10 ?v_13)))))))))))) (- 1)) (<= (+ ?v_11 (+ ?v_21 (+ ?v_7 (+ ?v_8 (+ ?v_47 (+ ?v_52 (+ (* 2 x19) (+ ?v_31 (+ ?v_9 (+ ?v_27 (+ ?v_10 ?v_45))))))))))) 0) (<= (+ ?v_20 (+ ?v_11 (+ ?v_29 (+ ?v_7 (+ ?v_1 (+ ?v_55 (+ ?v_12 (+ ?v_15 (+ ?v_17 (+ ?v_46 (+ ?v_51 (+ ?v_23 (+ ?v_44 ?v_13))))))))))))) (- 1)) (<= (+ ?v_4 (+ ?v_14 (+ ?v_7 (+ ?v_12 (+ ?v_15 (+ ?v_16 (+ ?v_34 (+ ?v_2 (+ ?v_17 (+ ?v_18 (+ ?v_37 (+ ?v_39 (+ ?v_40 ?v_54))))))))))))) 1) (<= (+ ?v_19 (+ ?v_20 (+ ?v_21 (+ ?v_22 (+ ?v_30 (+ ?v_35 (+ ?v_15 (+ ?v_2 (+ ?v_48 (+ ?v_23 (+ ?v_56 (* 3 x18)))))))))))) 0) (<= (+ ?v_19 (+ ?v_28 (+ ?v_14 (+ ?v_22 (+ ?v_24 (+ ?v_25 (+ ?v_12 (+ ?v_26 (+ ?v_36 (+ ?v_27 (+ ?v_38 ?v_13))))))))))) 0) (<= (+ ?v_28 (+ ?v_29 (+ ?v_22 (+ ?v_30 (+ ?v_5 (+ ?v_15 (+ ?v_64 (+ ?v_33 (+ ?v_31 (+ ?v_53 (+ ?v_9 (+ ?v_27 ?v_10)))))))))))) (- 1)) (<= (+ ?v_8 (+ ?v_28 (+ ?v_11 (+ ?v_29 (+ ?v_24 (+ ?v_25 (+ (* 2 x12) (+ ?v_32 (+ (* 4 x19) (+ ?v_33 ?v_13)))))))))) 0) (<= (+ ?v_28 (+ ?v_11 (+ ?v_34 (+ ?v_24 (+ ?v_50 (+ ?v_26 (+ ?v_35 (+ ?v_36 (+ ?v_18 (+ ?v_60 (+ ?v_37 (+ ?v_10 ?v_42)))))))))))) 0) (<= (+ ?v_4 (+ ?v_11 (+ ?v_30 (+ ?v_25 (+ ?v_26 (+ ?v_31 (+ ?v_27 (+ ?v_38 (+ ?v_39 (+ ?v_40 ?v_41)))))))))) 1) (<= (+ ?v_19 (+ ?v_30 (+ ?v_8 (+ ?v_16 (+ ?v_29 (+ ?v_41 (+ ?v_34 (+ ?v_25 (+ ?v_42 (+ ?v_38 (+ ?v_3 ?v_43))))))))))) 1) (<= (+ (* (- 2) x10) (+ ?v_12 (+ (* (- 2) x16) (+ ?v_16 (+ ?v_41 (+ ?v_34 (+ ?v_35 (+ (* 2 x13) (+ ?v_17 (+ ?v_9 (+ ?v_10 (+ ?v_44 ?v_45)))))))))))) (- 1)) (<= (+ ?v_8 (+ ?v_29 (+ ?v_41 (+ ?v_24 (+ ?v_36 (+ ?v_10 (+ ?v_46 (+ ?v_47 (+ ?v_61 (+ ?v_48 (+ ?v_23 (+ ?v_59 (+ ?v_42 ?v_49))))))))))))) 0) (<= (+ ?v_28 (+ ?v_14 (+ ?v_30 (+ ?v_41 (+ ?v_50 (+ ?v_35 (+ ?v_36 (+ ?v_27 (+ ?v_42 (+ ?v_38 (+ ?v_51 ?v_49))))))))))) 0) (<= (+ ?v_0 (+ ?v_52 (+ ?v_16 (+ ?v_53 (+ ?v_21 (+ ?v_41 (+ ?v_34 (+ ?v_32 (+ ?v_5 (+ ?v_36 (+ ?v_43 (+ ?v_49 ?v_54)))))))))))) 0) (<= (+ ?v_30 (+ ?v_28 (+ ?v_11 (+ ?v_21 (+ ?v_22 (+ ?v_41 (+ ?v_5 (+ ?v_31 (+ ?v_38 (+ ?v_51 (+ ?v_54 (+ ?v_43 ?v_39)))))))))))) 0) (<= (+ (* (- 3) x13) (+ ?v_55 (+ ?v_15 (+ ?v_16 (+ ?v_37 (+ ?v_41 (+ ?v_50 (+ ?v_46 (+ ?v_48 ?v_63))))))))) (- 1)) (<= (+ ?v_19 (+ ?v_57 (+ ?v_58 (+ ?v_29 (+ ?v_41 (+ ?v_34 (+ ?v_35 (+ ?v_2 (+ ?v_50 (+ ?v_18 (+ (* (- 2) x4) ?v_42))))))))))) 0) (<= (+ ?v_58 (+ ?v_14 (+ ?v_22 (+ ?v_55 (+ ?v_26 (+ ?v_15 (+ ?v_53 (+ ?v_41 (+ ?v_5 (+ ?v_17 (+ ?v_10 (+ ?v_23 ?v_59)))))))))))) 0) (<= (+ ?v_14 (+ ?v_52 (+ ?v_33 (+ ?v_41 (+ ?v_34 (+ ?v_24 (+ ?v_36 (+ ?v_2 (+ ?v_50 (+ ?v_60 (+ ?v_27 ?v_56))))))))))) 0) (<= (+ ?v_55 (+ ?v_12 (+ ?v_16 (+ ?v_20 (+ ?v_67 (+ ?v_21 (+ ?v_41 (+ ?v_32 (+ ?v_35 (+ ?v_38 (+ ?v_60 (+ ?v_27 (+ ?v_59 (+ ?v_39 ?v_40)))))))))))))) 1) (<= (+ ?v_28 (+ ?v_14 (+ ?v_26 (+ ?v_33 (+ (* (- 2) x9) (+ ?v_41 (+ ?v_17 (+ ?v_46 (+ ?v_61 (+ ?v_60 (+ ?v_27 (+ ?v_59 ?v_42)))))))))))) (- 1)) (<= (+ ?v_4 (+ ?v_11 (+ ?v_55 (+ ?v_29 (+ ?v_34 (+ ?v_50 (+ ?v_36 (+ ?v_38 (+ ?v_18 (+ ?v_42 (+ ?v_44 (+ ?v_39 ?v_49)))))))))))) 0) (<= (+ ?v_4 (+ ?v_11 (+ ?v_55 (+ ?v_53 (+ ?v_29 (+ ?v_34 (+ ?v_24 (+ ?v_5 (+ ?v_38 (+ ?v_18 (+ ?v_27 ?v_66))))))))))) 1) (<= (+ ?v_0 (+ ?v_55 (+ ?v_62 (+ ?v_21 (+ ?v_34 (+ ?v_24 (+ ?v_50 (+ ?v_17 (+ ?v_36 (+ ?v_18 ?v_63)))))))))) 1) (<= (+ ?v_0 (+ ?v_52 (+ ?v_57 (+ ?v_34 (+ ?v_1 (+ ?v_25 (+ ?v_50 (+ ?v_32 (+ ?v_18 (+ ?v_31 (+ ?v_9 (+ ?v_59 (+ ?v_42 ?v_13))))))))))))) 0) (<= (+ ?v_0 (+ ?v_25 (+ ?v_5 (+ ?v_31 (+ ?v_28 (+ ?v_6 (+ ?v_10 (+ ?v_42 (+ ?v_48 (+ ?v_38 (+ ?v_9 (+ ?v_43 ?v_13)))))))))))) 1) (<= (+ ?v_0 (+ ?v_22 (+ ?v_1 (+ ?v_2 (+ ?v_51 (+ ?v_65 (+ ?v_64 (+ ?v_9 (+ ?v_44 ?v_59))))))))) 1) (<= (+ ?v_12 (+ ?v_57 (+ ?v_20 (+ ?v_24 (+ ?v_21 (+ ?v_2 (+ ?v_5 (+ ?v_3 (+ ?v_18 (+ ?v_31 (+ ?v_42 (+ ?v_44 (+ ?v_49 (+ ?v_65 (* 2 x4))))))))))))))) 0) (<= (+ ?v_20 (+ ?v_0 (+ ?v_29 (+ ?v_34 (+ ?v_24 (+ ?v_32 (+ ?v_35 (+ ?v_36 (+ ?v_18 (+ ?v_42 (+ ?v_66 (+ ?v_61 (+ ?v_39 ?v_13))))))))))))) 0) (<= (+ ?v_0 (+ ?v_14 (+ ?v_22 (+ ?v_1 (+ ?v_55 (+ ?v_15 (+ ?v_32 (+ ?v_35 (+ (* 2 x18) (+ ?v_33 (+ ?v_66 (+ ?v_9 (+ ?v_44 ?v_49))))))))))))) 0) (<= (+ ?v_20 (+ ?v_11 (+ ?v_29 (+ ?v_24 (+ ?v_35 (+ ?v_17 (+ ?v_36 (+ ?v_27 (+ ?v_59 (+ ?v_42 (+ ?v_66 (+ ?v_46 (+ ?v_2 (* 2 x9)))))))))))))) (- 1)) (<= (+ ?v_0 (+ ?v_14 (+ ?v_55 (+ ?v_8 (+ ?v_34 (+ ?v_24 (+ ?v_26 (+ ?v_17 (+ ?v_31 (+ ?v_10 (+ ?v_66 ?v_54))))))))))) (- 1)) (<= (+ ?v_30 (+ ?v_35 (+ ?v_15 (+ ?v_28 (+ ?v_17 (+ ?v_18 (+ ?v_27 (+ ?v_10 (+ ?v_42 (+ ?v_66 (+ ?v_61 ?v_54))))))))))) 1) (<= (+ ?v_19 (+ ?v_55 (+ ?v_12 (+ ?v_21 (+ ?v_18 (+ ?v_66 (+ ?v_46 (+ ?v_1 (+ ?v_60 (+ ?v_44 (+ ?v_59 (+ ?v_39 (+ ?v_56 ?v_49))))))))))))) 0) (<= (+ ?v_20 (+ ?v_35 (+ ?v_11 (+ ?v_1 (+ ?v_25 (+ ?v_52 (+ ?v_15 (+ ?v_31 (+ ?v_10 (+ ?v_53 (+ ?v_21 (+ ?v_51 ?v_40)))))))))))) 0) (<= (+ ?v_19 (+ ?v_15 (+ ?v_28 (+ ?v_29 (+ ?v_24 (+ ?v_50 (+ ?v_23 (+ (* 2 x7) (+ ?v_42 (+ ?v_46 (+ ?v_54 ?v_13))))))))))) 0) (<= (+ ?v_20 (+ ?v_67 (+ ?v_29 (+ (* (- 2) x12) (+ ?v_15 (+ ?v_1 (+ ?v_31 (+ ?v_61 (+ ?v_38 (+ (* 2 x2) (+ ?v_43 ?v_40))))))))))) (- 1)))))))
(check-sat)
(exit)
